% seed = 5772171

mint = 56;
% maxt = 150;

nActs = 22;
dur = [0,9,7,9,8,9,9,9,9,10,8,6,10,3,6,8,10,8,5,1,6,0];

nSkills = 4;
sreq = [| 0,0,0,0,
	| 0,1,0,1,
	| 0,3,3,0,
	| 0,0,3,3,
	| 2,1,0,0,
	| 0,3,0,1,
	| 0,0,3,2,
	| 2,3,0,0,
	| 3,0,1,0,
	| 1,1,0,0,
	| 2,0,3,0,
	| 3,0,1,0,
	| 1,0,2,0,
	| 3,2,0,0,
	| 1,0,2,0,
	| 2,1,0,0,
	| 1,0,0,3,
	| 0,0,1,3,
	| 0,1,0,1,
	| 0,0,3,3,
	| 1,0,3,0,
	| 0,0,0,0, |];

nResources = 15;
mastery = [| true,false,true,true,
	| true,false,false,false,
	| true,false,true,false,
	| false,true,true,false,
	| true,false,false,false,
	| true,false,true,false,
	| false,true,true,true,
	| true,true,true,false,
	| true,true,true,false,
	| false,true,true,false,
	| false,true,true,true,
	| true,false,false,true,
	| true,true,false,false,
	| false,false,true,true,
	| true,false,false,false, |];

nPrecs = 43;
pred = [1,1,1,2,2,2,3,3,3,4,4,4,5,5,6,6,6,7,7,7,8,8,8,9,10,11,12,12,12,13,13,13,14,15,16,16,16,17,17,18,19,20,21];
succ = [2,3,4,5,6,8,12,13,16,11,5,6,9,7,9,15,16,17,10,13,11,12,19,14,12,14,18,14,15,19,21,15,20,20,17,18,19,20,21,21,22,22,22];

nUnrels = 79;
unpred = [2,2,3,3,3,3,3,3,3,3,4,5,5,5,5,6,6,6,6,6,6,7,7,7,7,8,8,8,8,8,9,9,9,9,9,9,9,9,9,9,10,10,10,10,10,11,11,11,11,11,11,11,11,12,12,12,12,13,13,13,13,14,14,14,14,14,14,15,15,15,15,15,17,17,18,18,19,19,20];
unsucc = [3,4,4,5,6,7,8,9,10,11,8,6,8,11,16,7,8,10,11,12,13,8,9,11,16,9,10,13,16,17,10,11,12,13,15,16,17,18,19,21,11,13,16,17,19,12,13,15,16,17,18,19,21,13,16,17,19,14,16,17,18,15,16,17,18,19,21,16,17,18,19,21,18,19,19,20,20,21,21];

USEFUL_RES = [{},
	{1,4,7,8,9,10,11,12,13,14},
	{1,3,4,6,7,8,9,10,11,13,14},
	{1,3,4,6,7,8,9,10,11,12,14},
	{1,2,3,4,5,6,7,8,9,10,11,12,13,15},
	{1,4,7,8,9,10,11,12,13,14},
	{1,3,4,6,7,8,9,10,11,12,14},
	{1,2,3,4,5,6,7,8,9,10,11,12,13,15},
	{1,2,3,4,5,6,7,8,9,10,11,12,13,14,15},
	{1,2,3,4,5,6,7,8,9,10,11,12,13,15},
	{1,2,3,4,5,6,7,8,9,10,11,12,13,14,15},
	{1,2,3,4,5,6,7,8,9,10,11,12,13,14,15},
	{1,2,3,4,5,6,7,8,9,10,11,12,13,14,15},
	{1,2,3,4,5,6,7,8,9,10,11,12,13,15},
	{1,2,3,4,5,6,7,8,9,10,11,12,13,14,15},
	{1,2,3,4,5,6,7,8,9,10,11,12,13,15},
	{1,2,3,5,6,7,8,9,11,12,13,14,15},
	{1,3,4,6,7,8,9,10,11,12,14},
	{1,4,7,8,9,10,11,12,13,14},
	{1,3,4,6,7,8,9,10,11,12,14},
	{1,2,3,4,5,6,7,8,9,10,11,12,13,14,15},
	{}];

POTENTIAL_ACT = [{2,3,4,5,6,7,8,9,10,11,12,13,14,15,16,17,18,19,20,21},
	{5,8,9,10,11,12,13,14,15,16,17,21},
	{3,4,5,7,8,9,10,11,12,13,14,15,16,17,18,20,21},
	{2,3,4,5,6,7,8,9,10,11,12,13,14,15,16,18,19,20,21},
	{5,8,9,10,11,12,13,14,15,16,17,21},
	{3,4,5,7,8,9,10,11,12,13,14,15,16,17,18,20,21},
	{2,3,4,5,6,7,8,9,10,11,12,13,14,15,16,17,18,19,20,21},
	{2,3,4,5,6,7,8,9,10,11,12,13,14,15,16,17,18,19,20,21},
	{2,3,4,5,6,7,8,9,10,11,12,13,14,15,16,17,18,19,20,21},
	{2,3,4,5,6,7,8,9,10,11,12,13,14,15,16,18,19,20,21},
	{2,3,4,5,6,7,8,9,10,11,12,13,14,15,16,17,18,19,20,21},
	{2,4,5,6,7,8,9,10,11,12,13,14,15,16,17,18,19,20,21},
	{2,3,5,6,8,9,10,11,12,13,14,15,16,17,19,21},
	{2,3,4,6,7,9,11,12,13,15,17,18,19,20,21},
	{5,8,9,10,11,12,13,14,15,16,17,21}];
